
--- Job Linear.gms Start 01/29/20 16:37:57 30.1.0 re01a340 WEX-WEI x86 64bit/MS Windows
--- GAMS Parameters defined
    Input C:\Users\debernal\Dropbox\CMU\Research\StableSet\GAMS\Linear.gms
    PageWidth 80
    PageSize 0
    PageContr 3
    Action CE
    ScrDir C:\Users\debernal\Dropbox\CMU\Research\StableSet\GAMS\225a\
    SysDir C:\GAMS\win64\30.1\
    WorkDir C:\Users\debernal\Dropbox\CMU\Research\StableSet\GAMS\
    LogOption 3
    DFormat 0
    TFormat 0
    ErrorLog 99
    LimRow 50
    IDE 1
GAMS 30.1.0   Copyright (C) 1987-2020 GAMS Development. All rights reserved
Licensee: Eval License Carnegie Mellon University        G191212/0001AB-GEN
          Dept. of Chemical Engineering                              DCE375
          Evaluation license: Not for commercial or production use
--- Starting compilation
--- Linear.gms(1) 2 Mb
--- . cycle.inc(10) 3 Mb
--- Linear.gms(24) 3 Mb
--- Starting execution: elapsed 0:00:00.007
--- Linear.gms(30) 4 Mb
--- Generating MIP model stableset
--- Linear.gms(32) 4 Mb
---   501 rows  501 columns  1,501 non-zeroes
---   500 discrete-columns
--- Executing GUROBI: elapsed 0:00:00.098

Gurobi           30.1.0 re01a340 Released Jan 10, 2020 WEI x86 64bit/MS Window

Academic license - for non-commercial use only
GAMS/Gurobi demo/community requires a Gurobi license from Gurobi Optimization.
Gurobi library version 9.0.0
Space for names approximately 0.02 Mb
Use option 'names no' to turn use of names off
Starting Gurobi...
Gurobi Optimizer version 9.0.0 build v9.0.0rc2 (win64)
Optimize a model with 500 rows, 500 columns and 1000 nonzeros
Model fingerprint: 0x261caa96
Variable types: 0 continuous, 500 integer (500 binary)
Coefficient statistics:
  Matrix range     [1e+00, 1e+00]
  Objective range  [1e+00, 1e+00]
  Bounds range     [1e+00, 1e+00]
  RHS range        [1e+00, 1e+00]
Found heuristic solution: objective 250.0000000
Presolve time: 0.01s
Presolved: 500 rows, 500 columns, 1000 nonzeros
Variable types: 0 continuous, 500 integer (500 binary)

Root relaxation: cutoff, 0 iterations, 0.00 seconds

Explored 0 nodes (0 simplex iterations) in 0.01 seconds
Thread count was 1 (of 8 available processors)

Solution count 1: 250

Optimal solution found (tolerance 1.00e-01)
Best objective 2.500000000000e+02, best bound 2.500000000000e+02, gap 0.0000%

User-callback calls 35, time in user-callback 0.00 sec
MIP status(2): Model was solved to optimality (subject to tolerances).

Solving fixed MIP.
Gurobi Optimizer version 9.0.0 build v9.0.0rc2 (win64)
Optimize a model with 500 rows, 500 columns and 1000 nonzeros
Model fingerprint: 0xcde6b50e
Coefficient statistics:
  Matrix range     [1e+00, 1e+00]
  Objective range  [1e+00, 1e+00]
  Bounds range     [1e+00, 1e+00]
  RHS range        [1e+00, 1e+00]
Presolve removed 500 rows and 500 columns
Presolve time: 0.00s
Presolve: All rows and columns removed
Iteration    Objective       Primal Inf.    Dual Inf.      Time
       0    2.5000000e+02   0.000000e+00   0.000000e+00      0s

Solved in 0 iterations and 0.00 seconds
Optimal objective  2.500000000e+02

User-callback calls 62, time in user-callback 0.00 sec
Fixed MIP status(2): Model was solved to optimality (subject to tolerances).

MIP   Solution:        250.000000    (0 iterations, 0 nodes)
Final Solve:           250.000000    (0 iterations)

Best possible:         250.000000
Absolute gap:            0.000000
Relative gap:            0.000000

--- Restarting execution
--- Linear.gms(32) 2 Mb
--- Reading solution for model stableset
--- Executing after solve: elapsed 0:00:00.408
--- Linear.gms(34) 3 Mb
*** Status: Normal completion
--- Job Linear.gms Stop 01/29/20 16:37:57 elapsed 0:00:00.427
Cannot delete directory: 225a
